results_rootrelaxation/bin018_060_025.srr.sol
solution status: optimal solution found
objective value:                                    0
_var2764_                           0.170300321738078 	(obj:0)
_var2767_                          0.0817739399796749 	(obj:0)
_var2769_                           0.206000175450869 	(obj:0)
_var2800_                            0.24945298790687 	(obj:0)
_var2802_                           0.170870617290977 	(obj:0)
_var2816_                          0.0147467991819236 	(obj:0)
_var2822_                          0.0147677310353158 	(obj:0)
_var2826_                           0.183159866451256 	(obj:0)
_var2831_                          0.0333906715231557 	(obj:0)
_var2835_                           0.285952666643083 	(obj:0)
_var2836_                           0.256570462185502 	(obj:0)
_var2838_                           0.193244235482977 	(obj:0)
_var2839_                          0.0592264238305806 	(obj:0)
_var2844_                           0.164061463640919 	(obj:0)
_var2853_                          0.0538981420561949 	(obj:0)
_var2858_                           0.281989458484936 	(obj:0)
_var2861_                          0.0313867781369642 	(obj:0)
_var2870_                           0.132915123456656 	(obj:0)
_var2873_                          0.0813103116845315 	(obj:0)
_var2877_                          0.0313919984681988 	(obj:0)
_var2885_                          0.0429281547553367 	(obj:0)
_var2886_                          0.0268940597951978 	(obj:0)
_var2891_                         0.00316902516710942 	(obj:0)
_var2895_                          0.0744122959993052 	(obj:0)
_var2896_                           0.270063693706335 	(obj:0)
_var2902_                            0.25189431890181 	(obj:0)
_var2904_                          0.0163329247939353 	(obj:0)
_var2913_                          0.0319955105235589 	(obj:0)
_var2914_                           0.420334777745975 	(obj:0)
_var2918_                         0.00635445514360792 	(obj:0)
_var2922_                           0.171100645945849 	(obj:0)
_var2933_                           0.308202817478686 	(obj:0)
_var2937_                         0.00236765278998223 	(obj:0)
_var2938_                          0.0339536169528549 	(obj:0)
_var2944_                           0.133203776423248 	(obj:0)
_var2945_                           0.243580795707903 	(obj:0)
_var2951_                            0.24660110509475 	(obj:0)
_var2959_                           0.142555470071726 	(obj:0)
_var2967_                          0.0857470691860214 	(obj:0)
_var2971_                         0.00944914616723413 	(obj:0)
_var2972_                          0.0020346649476955 	(obj:0)
_var2975_                          0.0603071487375009 	(obj:0)
_var2976_                          0.0396779952605628 	(obj:0)
_var2978_                           0.215580151608302 	(obj:0)
_var2982_                          0.0617352085815636 	(obj:0)
_var2991_                           0.205416894729799 	(obj:0)
_var2993_                           0.284784474892938 	(obj:0)
_var2995_                           0.019713998487459 	(obj:0)
_var2998_                           0.240301447935511 	(obj:0)
_var3003_                           0.212925570820216 	(obj:0)
_var3011_                           0.291493281987533 	(obj:0)
_var3023_                          0.0939101839334799 	(obj:0)
_var3029_                          0.0509466113127779 	(obj:0)
_var3034_                           0.427262030300119 	(obj:0)
_var3035_                           0.141257216834804 	(obj:0)
_var3037_                         0.00775889092071165 	(obj:0)
_var3038_                           0.017412815450087 	(obj:0)
_var3039_                           0.173169327399065 	(obj:0)
_var3040_                          0.0754248433285621 	(obj:0)
_var3043_                           0.138925626531056 	(obj:0)
_var3044_                          0.0581376647461904 	(obj:0)
_var3046_                           0.130159065575137 	(obj:0)
_var3047_                            0.14881941092088 	(obj:0)
_var3067_                           0.230408493928667 	(obj:0)
_var3068_                          0.0828863412825259 	(obj:0)
_var3069_                           0.223250652557425 	(obj:0)
_var3071_                           0.127396450688997 	(obj:0)
_var3074_                         0.00208290412099609 	(obj:0)
_var3078_                          0.0605183106444514 	(obj:0)
_var3080_                          0.0621979767950463 	(obj:0)
_var3082_                           0.111927931778937 	(obj:0)
_var3085_                           0.260394880131366 	(obj:0)
_var3090_                            0.03485031862047 	(obj:0)
_var3091_                          0.0963949124824151 	(obj:0)
_var3092_                           0.202074989502417 	(obj:0)
_var3093_                           0.179314175390854 	(obj:0)
_var3094_                           0.223407658909333 	(obj:0)
_var3095_                           0.108240792167506 	(obj:0)
_var3098_                           0.233323473151791 	(obj:0)
_var3099_                           0.221263130978195 	(obj:0)
_var3100_                          0.0880050036165256 	(obj:0)
_var3101_                           0.100782311096249 	(obj:0)
_var3102_                          0.0199944475843523 	(obj:0)
_var3106_                           0.328296774574785 	(obj:0)
_var3107_                           0.118193058448214 	(obj:0)
_var3110_                          0.0944128794778965 	(obj:0)
_var3111_                          0.0369784994988944 	(obj:0)
_var3114_                           0.183505298220912 	(obj:0)
_var3115_                          0.0797014399884338 	(obj:0)
_var3116_                           0.030494712117796 	(obj:0)
_var3118_                          0.0875401923801636 	(obj:0)
_var3119_                          0.0473213309080579 	(obj:0)
_var3121_                           0.209393742812343 	(obj:0)
_var3122_                           0.247886762908557 	(obj:0)
_var3123_                           0.107542729069151 	(obj:0)
_var3124_                           0.190333244422838 	(obj:0)
_var3126_                          0.0878288007754759 	(obj:0)
_var3127_                           0.228328204366446 	(obj:0)
_var3129_                           0.129103335788336 	(obj:0)
_var3131_                          0.0417529796157949 	(obj:0)
_var3132_                           0.012549696953701 	(obj:0)
_var3136_                           0.150073631966604 	(obj:0)
_var3137_                          0.0800630810660609 	(obj:0)
_var3138_                          0.0610502456462465 	(obj:0)
_var3139_                           0.112995148527138 	(obj:0)
_var3140_                         0.00247221934196051 	(obj:0)
_var3143_                           0.111322846289132 	(obj:0)
_var3144_                          0.0111137753431719 	(obj:0)
_var3145_                           0.279955458984248 	(obj:0)
_var3147_                           0.306038055715295 	(obj:0)
_var3149_                          0.0248732491576764 	(obj:0)
_var3150_                          0.0569176557850603 	(obj:0)
_var3151_                            0.26674590920989 	(obj:0)
_var3152_                          0.0551798914867675 	(obj:0)
_var3154_                          0.0551968980039977 	(obj:0)
_var3155_                           0.114028868852294 	(obj:0)
_var3156_                          0.0163736430497702 	(obj:0)
_var3158_                           0.070414275301616 	(obj:0)
_var3159_                          0.0656116044507311 	(obj:0)
_var3160_                           0.111911956220611 	(obj:0)
_var3163_                          0.0186090009502998 	(obj:0)
_var3165_                           0.162940141961322 	(obj:0)
_var3166_                          0.0405594504845972 	(obj:0)
_var3167_                            0.15480751171802 	(obj:0)
_var3168_                          0.0297451163714058 	(obj:0)
_var3171_                          0.0406335271331934 	(obj:0)
_var3173_                          0.0396074180749197 	(obj:0)
_var3175_                         0.00660231043261694 	(obj:0)
_var3177_                          0.0915595401624449 	(obj:0)
_var3178_                          0.0178702880883948 	(obj:0)
_var3179_                          0.0568258461782808 	(obj:0)
_var3180_                           0.112725196693343 	(obj:0)
_var3184_                            0.13947178168156 	(obj:0)
_var3186_                          0.0172552643540738 	(obj:0)
_var3189_                           0.198625715856289 	(obj:0)
_var3190_                           0.213954860684164 	(obj:0)
_var3195_                          0.0702995471204598 	(obj:0)
_var3196_                          0.0138983543422789 	(obj:0)
_var3197_                          0.0153397167519281 	(obj:0)
_var3198_                          0.0664492797186493 	(obj:0)
_var3200_                         0.00204061871556213 	(obj:0)
_var3202_                          0.0731433186367737 	(obj:0)
_var3204_                          0.0120673378269739 	(obj:0)
_var3205_                          0.0322580662166558 	(obj:0)
_var3211_                           0.018201045653201 	(obj:0)
_var3213_                          0.0343969402679797 	(obj:0)
_var3214_                          0.0271390168656105 	(obj:0)
_var3215_                          0.0540299240935876 	(obj:0)
_var3218_                          0.0152567381632408 	(obj:0)
_var3220_                          0.0267638604265406 	(obj:0)
